171
1000
221
174
389
96
361
904
787
266
974
714
166
331
763
316
191
410
239
285
648
16
182
34
17
432
1
43
398
997
119
426
481
42
40
700
215
327
684
107
519
9
575
301
256
24
132
173
302
957
698
44
410
786
91
498
231
190
498
739
706
60
129
74
298
369
82
947
699
155
49
115
418
718
305
490
433
266
53
19
752
465
80
946
133
519
769
440
271
45
712
590
231
69
147
880
816
213
518
28
116
631
163
223
329
328
36
319
672
309
128
809
909
336
343
3
560
25
88
332
306
192
487
72
103
256
286
341
752
525
319
214
567
102
246
213
882
753
237
695
124
217
3
474
157
37
347
475
554
465
91
365
417
131
482
21
47
568
583
261
54
128
523
478
87
283
120
184
315
721
690
362
91
